; benchmark generated from python API
(set-info :status unknown)
(declare-datatypes ((RealState 0)) (((RMk1 (rval1 Real)) (RMk2 (rval2 Real)))))
 (assert
 (forall ((|v17:0| Real) )(forall ((|v16:1| Real) )(forall ((|v15:2| Real) )(forall ((|v14:3| Real) )(forall ((|v13:4| Real) )(forall ((|v12:5| Real) )(exists ((|v11:6_st| RealState) (val!8910 Real) )(exists ((|v10:7_st| RealState) (val!8911 Real) )(exists ((|v9:8_st| RealState) (val!8912 Real) )(exists ((|v8:9_st| RealState) (val!8913 Real) )(exists ((|v7:10_st| RealState) (val!8914 Real) )(exists ((|v6:11_st| RealState) (val!8915 Real) )(forall ((|v5:12| Real) )(forall ((|v4:13| Real) )(forall ((|v3:14| Real) )(forall ((|v2:15| Real) )(forall ((|v1:16| Real) )(forall ((|v0:17| Real) )(let ((?x5128 (- 11.0)))
 (let ((?x4286 (* 6.0 |v2:15|)))
 (let ((?x2903 (rval2 |v6:11_st|)))
 (let ((?x3184 (* 15.0 ?x2903)))
 (let ((?x672 (* 12.0 |v3:14|)))
 (let ((?x175 (+ (+ (+ (* 4.0 |v13:4|) (* (- 7.0) |v12:5|)) (* 13.0 |v16:1|)) ?x672)))
 (let ((?x821 (* 4.0 |v2:15|)))
 (let ((?x1062 (* 4.0 |v14:3|)))
 (let ((?x3189 (* 17.0 |v1:16|)))
 (let ((?x4069 (+ (+ (+ (* (- 7.0) (rval2 |v10:7_st|)) (* 5.0 (rval2 |v10:7_st|))) ?x3189) ?x1062)))
 (let (($x3622 (<= (+ (+ (+ ?x4069 (* (- 19.0) (rval2 |v8:9_st|))) ?x821) (* 18.0 |v13:4|)) 9.0)))
 (let (($x2436 (and $x3622 (<= (+ (+ (+ ?x175 ?x3184) (* (- 15.0) |v14:3|)) ?x4286) ?x5128))))
 (let ((?x536 (rval2 |v7:10_st|)))
 (let ((?x2662 (* 17.0 ?x536)))
 (let ((?x3860 (* 19.0 |v2:15|)))
 (let ((?x7503 (- 8.0)))
 (let ((?x399 (* ?x7503 |v5:12|)))
 (let ((?x3649 (- 19.0)))
 (let ((?x2231 (* ?x3649 ?x536)))
 (let ((?x6484 (* ?x3649 |v3:14|)))
 (let ((?x405 (+ ?x6484 (* (- 16.0) |v0:17|))))
 (let ((?x983 (- 14.0)))
 (let ((?x8361 (* ?x983 |v16:1|)))
 (let ((?x1877 (* 19.0 |v4:13|)))
 (let ((?x2963 (* 19.0 |v3:14|)))
 (let ((?x4733 (rval2 |v10:7_st|)))
 (let ((?x2345 (- 2.0)))
 (let ((?x4063 (* ?x2345 ?x4733)))
 (let ((?x2149 (+ (+ (+ (* (- 17.0) |v4:13|) (rval2 |v9:8_st|)) (* (- 4.0) ?x536)) ?x4063)))
 (let (($x1078 (and (<= (+ (+ (+ ?x2149 ?x2963) ?x1877) ?x8361) 3.0) (<= (+ (+ (+ (+ (+ ?x405 ?x2231) ?x399) ?x3860) ?x2662) |v0:17|) 20.0))))
 (let ((?x203 (- 9.0)))
 (let ((?x2596 (* 8.0 |v13:4|)))
 (let ((?x4827 (+ (+ (+ (* ?x983 (rval2 |v9:8_st|)) (* ?x203 |v4:13|)) (* 12.0 |v16:1|)) (* 0.0 |v14:3|))))
 (let ((?x6390 (* 14.0 |v16:1|)))
 (let ((?x5713 (- 3.0)))
 (let ((?x3305 (* ?x5713 |v5:12|)))
 (let ((?x8866 (* 17.0 ?x2903)))
 (let ((?x1369 (* 14.0 |v4:13|)))
 (let ((?x6282 (+ (+ (+ (* 19.0 |v5:12|) (* ?x983 |v13:4|)) (* (- 17.0) (rval2 |v9:8_st|))) ?x1369)))
 (let (($x957 (and (<= (+ (+ (+ ?x6282 ?x8866) ?x3305) ?x6390) ?x203) (<= (+ (+ (+ ?x4827 ?x2596) ?x4063) (* (- 1.0) ?x2903)) ?x203))))
 (let ((?x4205 (- 18.0)))
 (let ((?x1805 (* ?x4205 |v16:1|)))
 (let ((?x738 (* 10.0 |v2:15|)))
 (let ((?x3476 (* ?x3649 |v4:13|)))
 (let ((?x1793 (* 16.0 |v3:14|)))
 (let ((?x5539 (+ (+ (+ (* 7.0 |v0:17|) (* (- 5.0) ?x4733)) (* 3.0 (rval2 |v8:9_st|))) ?x1793)))
 (let ((?x7119 (- 17.0)))
 (let ((?x4832 (* ?x7119 |v1:16|)))
 (let ((?x5735 (- 13.0)))
 (let ((?x3340 (* ?x5735 |v2:15|)))
 (let ((?x3153 (+ (+ (+ (* 7.0 (rval2 |v9:8_st|)) (* ?x5735 |v17:0|)) (* (- 4.0) |v12:5|)) ?x3340)))
 (let (($x7671 (or (<= (+ (+ (+ ?x3153 (* ?x2345 ?x536)) ?x4832) (* 17.0 ?x4733)) 20.0) (<= (+ (+ (+ ?x5539 ?x3476) ?x738) ?x1805) 4.0))))
 (let ((?x72 (rval2 |v11:6_st|)))
 (let ((?x2979 (* 11.0 ?x72)))
 (let ((?x244 (* ?x4205 |v0:17|)))
 (let ((?x7042 (* ?x7119 |v5:12|)))
 (let ((?x4466 (* ?x3649 ?x2903)))
 (let ((?x7347 (+ (+ (* ?x4205 |v5:12|) (* ?x5713 |v2:15|)) (* 11.0 |v5:12|))))
 (let ((?x4605 (- 15.0)))
 (let ((?x2097 (rval2 |v9:8_st|)))
 (let ((?x83 (* 14.0 ?x2097)))
 (let ((?x4688 (* 16.0 |v16:1|)))
 (let ((?x3846 (* ?x3649 |v0:17|)))
 (let ((?x357 (rval2 |v8:9_st|)))
 (let ((?x1054 (* 10.0 ?x357)))
 (let ((?x7120 (+ (+ (+ (+ (+ (* 14.0 |v3:14|) ?x8361) (* ?x4605 |v15:2|)) ?x1054) ?x3846) ?x4688)))
 (let (($x282 (and (<= (+ ?x7120 ?x83) ?x4605) (<= (+ (+ (+ (+ ?x7347 ?x4466) ?x7042) ?x244) ?x2979) ?x3649))))
 (let ((?x5999 (- 16.0)))
 (let ((?x6868 (* ?x5999 |v5:12|)))
 (let ((?x4261 (* 11.0 |v12:5|)))
 (let ((?x5264 (* 16.0 |v2:15|)))
 (let ((?x6922 (+ (+ (+ (+ (+ (* 10.0 ?x4733) (* (- 1.0) |v15:2|)) ?x1062) |v3:14|) ?x5264) ?x4261)))
 (let ((?x2595 (* 2.0 |v13:4|)))
 (let ((?x2494 (* ?x4605 |v15:2|)))
 (let ((?x3208 (* 10.0 |v1:16|)))
 (let ((?x5369 (+ (+ (+ (+ (* 10.0 ?x72) (* (- 5.0) |v17:0|)) (* ?x4605 ?x536)) ?x3208) (* ?x7119 |v15:2|))))
 (let (($x6001 (or (and (<= (+ (+ ?x5369 ?x2494) ?x2595) 17.0) (<= (+ ?x6922 ?x6868) ?x203)) $x282)))
 (let ((?x3264 (* ?x983 |v2:15|)))
 (let ((?x1556 (- 10.0)))
 (let ((?x2702 (* ?x1556 |v12:5|)))
 (let ((?x7596 (* ?x5735 ?x2903)))
 (let ((?x5634 (+ (+ (+ (* 2.0 |v17:0|) (* 20.0 ?x357)) (* 9.0 ?x72)) (* ?x3649 ?x4733))))
 (let ((?x4404 (* 13.0 |v3:14|)))
 (let ((?x7296 (+ (+ (+ (+ (* 3.0 |v14:3|) (* 6.0 ?x357)) (* ?x4205 ?x2097)) ?x4404) (* 18.0 ?x2903))))
 (let ((?x2331 (- 5.0)))
 (let ((?x5083 (* ?x2331 ?x4733)))
 (let ((?x356 (* 8.0 |v1:16|)))
 (let ((?x3226 (+ (+ (+ (+ (* ?x2345 ?x2903) (* ?x2331 |v1:16|)) (* 12.0 |v14:3|)) ?x356) ?x672)))
 (let (($x5170 (or (<= (+ (+ ?x3226 (* ?x203 ?x2903)) ?x5083) ?x5999) (<= (+ (+ ?x7296 ?x3184) ?x4466) 16.0))))
 (let (($x6291 (or (and (and $x5170 (<= (+ (+ (+ ?x5634 ?x7596) ?x2702) ?x3264) 9.0)) $x6001) (and (or $x7671 $x957) (and $x1078 $x2436)))))
 (let ((?x4204 (- 20.0)))
 (let ((?x6085 (* 2.0 ?x536)))
 (let ((?x7641 (* 8.0 |v0:17|)))
 (let ((?x4409 (* ?x1556 |v1:16|)))
 (let ((?x179 (* 19.0 |v0:17|)))
 (let ((?x4098 (+ (+ (+ (+ (* ?x4205 |v3:14|) (* 19.0 |v5:12|)) (* 8.0 |v15:2|)) ?x179) ?x4409)))
 (let ((?x1406 (- 1.0)))
 (let ((?x1004 (* ?x1406 |v2:15|)))
 (let ((?x8563 (* ?x2345 |v5:12|)))
 (let ((?x4805 (- 4.0)))
 (let ((?x3793 (* ?x4805 |v1:16|)))
 (let ((?x7236 (+ (+ (+ (+ (* ?x4205 ?x4733) (* 17.0 |v16:1|)) (* (- 6.0) |v17:0|)) ?x3793) ?x8563)))
 (let (($x4894 (and (<= (+ (+ ?x7236 ?x1004) (* ?x203 ?x72)) ?x1556) (<= (+ (+ ?x4098 ?x7641) ?x6085) ?x4204))))
 (let ((?x5199 (* 14.0 |v3:14|)))
 (let ((?x7198 (* 8.0 ?x536)))
 (let ((?x1523 (+ (+ (+ (+ (* ?x1556 |v14:3|) ?x4688) (* ?x983 |v13:4|)) (* 10.0 |v3:14|)) ?x7198)))
 (let ((?x1734 (* 3.0 |v16:1|)))
 (let ((?x3593 (+ (+ (+ ?x1734 (* 7.0 |v0:17|)) (* 13.0 |v0:17|)) (* (- 12.0) ?x4733))))
 (let (($x4140 (and (<= (+ (+ (+ ?x3593 (* ?x7119 |v14:3|)) (* ?x7503 |v12:5|)) ?x1734) 3.0) (<= (+ (+ ?x1523 ?x5199) (* 11.0 |v16:1|)) 18.0))))
 (let ((?x5426 (* 14.0 |v0:17|)))
 (let ((?x3091 (* 15.0 ?x536)))
 (let ((?x4660 (+ (+ (+ (+ ?x4261 (* ?x2331 |v4:13|)) (* 0.0 |v4:13|)) (* 17.0 |v2:15|)) ?x3091)))
 (let ((?x4851 (* 20.0 ?x2903)))
 (let ((?x3486 (- 12.0)))
 (let ((?x5334 (* ?x3486 |v5:12|)))
 (let ((?x7466 (* 17.0 |v16:1|)))
 (let ((?x3181 (+ (+ (+ (+ (* ?x5713 |v0:17|) (* 6.0 |v12:5|)) (* 20.0 ?x72)) ?x1054) ?x7466)))
 (let (($x3221 (and (<= (+ (+ ?x3181 ?x5334) ?x4851) 15.0) (<= (+ (+ ?x4660 (* (- 7.0) |v13:4|)) ?x5426) ?x2345))))
 (let ((?x7769 (* ?x203 |v0:17|)))
 (let ((?x6732 (* ?x5713 |v2:15|)))
 (let ((?x5384 (+ (+ (+ (* 6.0 |v0:17|) (* ?x5713 ?x357)) (* ?x7119 |v4:13|)) (* ?x3486 ?x536))))
 (let ((?x3778 (* 5.0 |v1:16|)))
 (let ((?x2921 (+ (+ (+ (+ (* 7.0 |v4:13|) ?x2596) (* ?x7119 ?x2097)) (* 19.0 ?x2097)) (* ?x1556 |v15:2|))))
 (let (($x820 (and (<= (+ (+ ?x2921 (* ?x2331 ?x72)) ?x3778) 0.0) (<= (+ (+ (+ ?x5384 (* 6.0 |v16:1|)) ?x6732) ?x7769) 2.0))))
 (let ((?x1471 (* 15.0 ?x4733)))
 (let ((?x846 (* ?x1556 |v3:14|)))
 (let ((?x2056 (* 13.0 ?x72)))
 (let ((?x8287 (+ (+ (+ (+ (* 8.0 |v3:14|) (* 3.0 |v12:5|)) (* 20.0 |v17:0|)) ?x2056) ?x846)))
 (let ((?x3881 (* 9.0 ?x536)))
 (let ((?x6904 (* ?x2331 |v2:15|)))
 (let ((?x1637 (+ (+ (+ (+ (* 20.0 |v14:3|) (* ?x5735 |v17:0|)) (* ?x1406 |v14:3|)) ?x6904) (* ?x5128 |v16:1|))))
 (let (($x769 (or (<= (+ (+ ?x1637 ?x3881) ?x1004) 8.0) (<= (+ (+ ?x8287 (* 0.0 |v12:5|)) ?x1471) 11.0))))
 (let ((?x4434 (* 7.0 ?x2097)))
 (let ((?x384 (* 2.0 |v0:17|)))
 (let ((?x2943 (+ (+ (+ (+ (* 8.0 |v16:1|) (* (- 7.0) ?x357)) (* ?x5128 |v2:15|)) ?x384) (* 5.0 ?x536))))
 (let ((?x1313 (* ?x4605 |v2:15|)))
 (let ((?x2218 (* 0.0 |v1:16|)))
 (let ((?x2398 (* 13.0 |v16:1|)))
 (let ((?x1985 (* 8.0 ?x72)))
 (let ((?x1513 (+ (+ (+ (+ (* ?x1406 |v1:16|) (* ?x4205 ?x357)) (* ?x2345 |v3:14|)) ?x1985) ?x2398)))
 (let (($x8858 (or (<= (+ (+ ?x1513 ?x2218) ?x1313) 16.0) (<= (+ (+ ?x2943 ?x4434) (* ?x4204 ?x357)) 9.0))))
 (let ((?x8827 (* ?x4805 |v0:17|)))
 (let ((?x1627 (* 14.0 |v13:4|)))
 (let ((?x3317 (+ (+ (+ (+ (* 6.0 |v5:12|) (* ?x203 ?x536)) (* 10.0 ?x2097)) ?x4404) ?x1627)))
 (let (($x2381 (or (or (<= (+ (+ ?x3317 ?x8827) (* ?x5735 |v14:3|)) ?x2331) (and $x8858 $x769)) (and (or $x820 $x3221) (and $x4140 $x4894)))))
 (let ((?x3528 (* 19.0 |v5:12|)))
 (let ((?x4310 (* ?x7503 |v4:13|)))
 (let ((?x1364 (* 2.0 |v15:2|)))
 (let ((?x7421 (+ (+ (+ (+ (* ?x2345 ?x2097) (* ?x5999 ?x357)) (* 19.0 ?x357)) ?x1364) ?x4310)))
 (let ((?x682 (* 2.0 ?x2097)))
 (let ((?x5692 (* 6.0 |v17:0|)))
 (let ((?x1095 (+ (+ (+ (+ (* 20.0 |v12:5|) (* 4.0 |v3:14|)) ?x846) (* 4.0 |v1:16|)) ?x1805)))
 (let (($x4456 (and (<= (+ (+ ?x1095 ?x5692) ?x682) 1.0) (<= (+ (+ ?x7421 ?x3528) (* ?x203 |v16:1|)) ?x4205))))
 (let ((?x1920 (* 4.0 ?x357)))
 (let ((?x4923 (+ (+ (+ (+ ?x1805 (* (- 6.0) |v16:1|)) (* 4.0 ?x72)) (* ?x7503 ?x2097)) ?x1920)))
 (let ((?x6411 (* 16.0 ?x2903)))
 (let ((?x634 (* 12.0 |v16:1|)))
 (let ((?x1842 (+ (+ (+ (+ (* 0.0 |v3:14|) (* (- 6.0) ?x2903)) (* ?x4605 ?x536)) ?x634) ?x4261)))
 (let (($x1357 (or (<= (+ (+ ?x1842 (* ?x1556 ?x4733)) ?x6411) 11.0) (<= (+ (+ ?x4923 (* ?x5128 ?x2903)) ?x4409) ?x4205))))
 (let ((?x2933 (* ?x1406 |v16:1|)))
 (let ((?x4734 (+ (+ (+ (* ?x7119 ?x4733) (* ?x1556 |v4:13|)) (* ?x1406 |v17:0|)) (* ?x4204 ?x4733))))
 (let ((?x3438 (* ?x983 |v5:12|)))
 (let ((?x2401 (* 6.0 |v0:17|)))
 (let ((?x6252 (+ (+ (+ (+ ?x6868 (* ?x5999 |v4:13|)) (* ?x7119 ?x536)) (* 2.0 |v4:13|)) ?x2401)))
 (let ((?x616 (+ (+ (+ (+ ?x846 (* ?x1556 |v13:4|)) (* 15.0 |v12:5|)) ?x6390) (* ?x1406 ?x4733))))
 (let (($x7517 (and (<= (+ (+ ?x616 (* ?x4204 ?x72)) ?x1793) 4.0) (<= (+ (+ ?x6252 (* ?x5713 |v13:4|)) ?x3438) ?x2345))))
 (let (($x4809 (and (and $x7517 (<= (+ (+ (+ ?x4734 (* ?x5735 ?x72)) ?x2933) ?x1369) ?x983)) (or $x1357 $x4456))))
 (let ((?x3419 (* 20.0 |v3:14|)))
 (let ((?x7392 (* ?x2345 |v0:17|)))
 (let ((?x3316 (+ (+ (+ (+ (* 9.0 |v3:14|) (* ?x7503 |v0:17|)) ?x6411) (* 15.0 |v13:4|)) ?x7392)))
 (let ((?x717 (- 7.0)))
 (let ((?x199 (* ?x717 |v2:15|)))
 (let ((?x641 (* ?x5999 |v3:14|)))
 (let ((?x5218 (+ (+ (+ (+ (* (- 6.0) ?x2903) ?x3419) (* ?x3649 |v1:16|)) (* ?x4605 |v3:14|)) ?x4261)))
 (let (($x4079 (and (<= (+ (+ ?x5218 ?x641) ?x199) ?x2331) (<= (+ (+ ?x3316 ?x5426) ?x3419) ?x2331))))
 (let ((?x4170 (* ?x1406 |v15:2|)))
 (let ((?x2419 (* 18.0 |v12:5|)))
 (let ((?x3099 (* 10.0 |v4:13|)))
 (let ((?x1632 (+ (+ (+ (+ (* ?x5128 |v17:0|) (* 15.0 |v17:0|)) (* 14.0 |v1:16|)) ?x3099) ?x6411)))
 (let ((?x6000 (* 7.0 |v12:5|)))
 (let ((?x5759 (* ?x7119 ?x72)))
 (let ((?x3199 (+ (+ (+ (+ (* ?x3486 |v1:16|) ?x6411) (* 15.0 ?x2097)) (* 20.0 ?x72)) ?x5759)))
 (let (($x4779 (or (<= (+ (+ ?x3199 ?x6000) (* ?x5999 |v14:3|)) 3.0) (<= (+ (+ ?x1632 ?x2419) ?x4170) 5.0))))
 (let ((?x478 (* 8.0 |v5:12|)))
 (let ((?x855 (* 14.0 ?x72)))
 (let ((?x7893 (+ (+ (+ (* ?x7503 |v3:14|) (* ?x4204 |v0:17|)) (* ?x7119 |v17:0|)) (* 5.0 ?x2903))))
 (let ((?x5194 (+ (+ (+ (+ (+ ?x399 ?x3264) (* ?x4605 |v0:17|)) ?x6484) (* ?x5128 |v12:5|)) ?x6732)))
 (let (($x1713 (and (<= (+ ?x5194 (* 10.0 |v13:4|)) 7.0) (<= (+ (+ (+ ?x7893 ?x855) ?x478) ?x3184) ?x983))))
 (let ((?x1360 (* 16.0 ?x4733)))
 (let ((?x238 (+ (+ (+ (+ (+ (* ?x1556 |v14:3|) ?x1793) ?x244) (* ?x4204 |v0:17|)) ?x1360) ?x2231)))
 (let ((?x2340 (* 9.0 |v0:17|)))
 (let ((?x5320 (* ?x2331 |v4:13|)))
 (let ((?x1048 (+ (+ (+ (+ (* 4.0 |v13:4|) (* ?x4205 |v1:16|)) (* ?x7503 ?x72)) ?x5320) (* ?x1406 ?x72))))
 (let (($x1327 (and (<= (+ (+ ?x1048 ?x2340) (* ?x4805 ?x72)) ?x5999) (<= (+ ?x238 (* 20.0 ?x536)) ?x5735))))
 (let ((?x4223 (* 3.0 |v13:4|)))
 (let ((?x1455 (* 14.0 |v5:12|)))
 (let ((?x3554 (+ (+ (+ (+ (* 3.0 |v15:2|) (* 5.0 ?x357)) ?x8361) (* ?x5999 |v17:0|)) ?x1455)))
 (let ((?x1058 (+ (+ (+ (* ?x5128 ?x357) (* 9.0 |v12:5|)) (* 3.0 |v12:5|)) (* ?x3486 |v14:3|))))
 (let (($x5183 (and (<= (+ (+ (+ ?x1058 ?x536) ?x3208) (* ?x3649 |v14:3|)) 1.0) (<= (+ (+ ?x3554 (* ?x3649 |v13:4|)) ?x4223) ?x5128))))
 (let ((?x5845 (* 15.0 |v12:5|)))
 (let ((?x3397 (+ (+ (+ (+ ?x2398 (* 17.0 ?x2097)) (* 6.0 |v15:2|)) (* 6.0 |v4:13|)) ?x6000)))
 (let ((?x2294 (- 6.0)))
 (let ((?x2730 (* 9.0 |v4:13|)))
 (let ((?x7679 (+ (+ (+ (+ ?x7596 ?x8866) (* 16.0 ?x357)) (* ?x7119 ?x2903)) (* ?x4605 ?x357))))
 (let (($x3740 (and (<= (+ (+ ?x7679 ?x2730) ?x2340) ?x2294) (<= (+ (+ ?x3397 (* ?x4605 |v12:5|)) ?x5845) 12.0))))
 (let ((?x4706 (* ?x7119 |v0:17|)))
 (let ((?x5004 (+ (+ (+ (+ ?x7466 (* 18.0 |v2:15|)) (* ?x5713 |v12:5|)) (* 18.0 |v1:16|)) (* 6.0 ?x72))))
 (let ((?x3085 (* 16.0 ?x357)))
 (let ((?x3562 (+ (+ (+ (+ (* ?x5128 |v14:3|) (* ?x983 ?x536)) (* 19.0 |v14:3|)) ?x3085) (* ?x2345 ?x72))))
 (let (($x990 (and (<= (+ (+ ?x3562 ?x1793) (* ?x4204 |v13:4|)) ?x717) (<= (+ (+ ?x5004 (* 10.0 |v16:1|)) ?x4706) ?x5128))))
 (let ((?x2880 (* 7.0 |v2:15|)))
 (let ((?x755 (* 14.0 |v14:3|)))
 (let ((?x5695 (+ (+ (+ (+ (* 19.0 |v15:2|) |v2:15|) (* 11.0 |v13:4|)) (* ?x2345 |v13:4|)) ?x2933)))
 (let ((?x2178 (* 2.0 |v1:16|)))
 (let ((?x1422 (* 16.0 ?x2097)))
 (let ((?x2460 (+ (+ (+ (+ (* 17.0 |v12:5|) (* ?x5128 |v17:0|)) (* 8.0 |v14:3|)) ?x1422) (* ?x2294 |v12:5|))))
 (let (($x6468 (and (<= (+ (+ ?x2460 ?x2702) ?x2178) 16.0) (<= (+ (+ ?x5695 ?x755) ?x2880) ?x203))))
 (let ((?x1899 (* ?x1406 |v17:0|)))
 (let ((?x3515 (* ?x983 |v4:13|)))
 (let ((?x7383 (+ (+ (+ (+ (* 3.0 |v3:14|) (* 5.0 |v5:12|)) (* ?x7119 ?x357)) ?x3515) ?x5759)))
 (let ((?x5262 (* 13.0 |v17:0|)))
 (let ((?x8992 (* ?x5713 ?x357)))
 (let ((?x297 (* ?x7119 |v17:0|)))
 (let ((?x2945 (+ (+ (+ (+ (* ?x5128 |v17:0|) (* 5.0 ?x2097)) (* ?x4205 |v4:13|)) ?x297) ?x8992)))
 (let (($x784 (and (<= (+ (+ ?x2945 ?x5262) ?x1734) 15.0) (<= (+ (+ ?x7383 ?x1899) ?x1369) ?x4204))))
 (let (($x3113 (or (or $x784 (and (or $x6468 $x990) (and $x3740 $x5183))) (or (or (and $x1327 $x1713) (and $x4779 $x4079)) $x4809))))
 (let ((?x2720 (* ?x983 |v0:17|)))
 (let ((?x2683 (* ?x5735 |v1:16|)))
 (let ((?x5655 (+ (+ (+ (+ (+ (* 20.0 |v13:4|) ?x6000) ?x179) (* ?x5999 ?x2097)) ?x2683) ?x2720)))
 (let (($x4184 (not (= |v6:11_st| (RMk1 val!8915)))))
 (let (($x3947 (not (= |v7:10_st| (RMk1 val!8914)))))
 (let (($x3746 (not (= |v8:9_st| (RMk1 val!8913)))))
 (let (($x3505 (not (= |v9:8_st| (RMk1 val!8912)))))
 (let (($x1202 (not (= |v10:7_st| (RMk1 val!8911)))))
 (let (($x2351 (not (= |v11:6_st| (RMk1 val!8910)))))
 (and $x2351 $x1202 $x3505 $x3746 $x3947 $x4184 (or (<= (+ ?x5655 ?x2880) ?x5713) (or $x3113 (or $x2381 $x6291))))))))))))))))))))))))))))))))))))))))))))))))))))))))))))))))))))))))))))))))))))))))))))))))))))))))))))))))))))))))))))))))))))))))))))))))))))))))))))))))))))))))))))))))))))))))))))))))))))))))))))))))))))))))))))))))))))))))))))))))
 )
 )
 )
 )
 )
 )
 )
 )
 )
 )
 )
 )
 )
 )
 )
 )
 )
 )
(check-sat)
